c WARNING: for repeatability, setting FPU to use double precision
d VARIABLES            187002       
d CONSTRAINTS          854911       
c ============================[ Problem Statistics ]=============================
c |                                                                             |
c |  Number of variables:        187002                                         |
c |  Number of clauses:          854911                                         |
c |  Parse time:                   0.14 s                                       |
c |                                                                             |
c ============================[ Search Statistics ]==============================
c | Conflicts |          ORIGINAL         |          LEARNT          | Progress |
c |           |    Vars  Clauses Literals |    Limit  Clauses Lit/Cl |          |
c ===============================================================================
c |       100 |  165023   792615  1917224 |   290625      100      5 | 11.753 % |
c |       250 |  165023   792615  1917224 |   319688      250      7 | 11.753 % |
c |       475 |  165023   792615  1917224 |   351656      475      8 | 11.753 % |
c |       812 |  165023   792615  1917224 |   386822      812     29 | 11.753 % |
c |      1318 |  165023   792615  1917224 |   425504     1318     68 | 11.753 % |
c |      2077 |  165023   792615  1917224 |   468055     2077     69 | 11.753 % |
c |      3216 |  165023   792615  1917224 |   514860     3216     89 | 11.753 % |
c |      4924 |  165023   792615  1917224 |   566346     4924     89 | 11.753 % |
c |      7486 |  165023   792615  1917224 |   622981     7486     84 | 11.753 % |
c |     11330 |  165023   792615  1917224 |   685279    11330     84 | 11.753 % |
c |     17096 |  165023   792615  1917224 |   753807    17096    101 | 11.753 % |
c |     25745 |  165023   792615  1917224 |   829188    25745    114 | 11.753 % |
c |     38719 |  165023   792615  1917224 |   912107    38719    114 | 11.753 % |
c |     58180 |  165023   792615  1917224 |  1003318    58180    107 | 11.753 % |
c |     87372 |  165023   792615  1917224 |  1103649    87372    120 | 11.753 % |
c |    131161 |  165023   792615  1917224 |  1214014   131161    117 | 11.753 % |
c |    196845 |  165023   792615  1917224 |  1335416   196845    123 | 11.753 % |
c |    295371 |  165023   792615  1917224 |  1468957   295371    135 | 11.753 % |
c |    443160 |  165023   792615  1917224 |  1615853   443160    141 | 11.753 % |
c |    664843 |  165023   792615  1917224 |  1777439   664843    153 | 11.753 % |
c |    997368 |  165023   792615  1917224 |  1955183   997368    155 | 11.753 % |
c |   1496156 |  165023   792615  1917224 |  2150701  1496156    165 | 11.753 % |
c ===============================================================================
c restarts              : 3133
c conflicts             : 1659958        (925 /sec)
c decisions             : 5031406        (0.00 % random) (2804 /sec)
c propagations          : 4314343100     (2404578 /sec)
c conflict literals     : 287489046      (34.62 % deleted)
d RESTARTS             3133
d FAILURES             1659958      
d NODES                5031406      
d BACKTRACKS           5031406      
d PROPAGATIONS         4314343100   
d NOGOODSIZE           173.19 
d MEMORY               1602.00 
d TIME                 1794.22 

s UNKNOWN
